c Sudoku solution
p cnf 729 0
129 0
156 0
234 0
296 0
333 0
379 0
384 0
392 0
442 0
528 0
536 0
572 0
637 0
658 0
661 0
676 0
466 0
689 0
694 0
717 0
768 0
839 0
845 0
643 0
851 0
925 0
622 0
615 0
431 0
135 0
732 0
938 0
987 0
882 0
786 0
946 0
867 0
365 0
357 0
227 0
547 0
993 0
898 0
874 0
971 0
775 0
799 0
721 0
753 0
744 0
914 0
424 0
326 0
816 0
823 0
164 0
112 0
249 0
252 0
263 0
959 0
962 0
554 0
569 0
455 0
419 0
513 0
278 0
285 0
148 0
341 0
211 0
318 0
581 0
595 0
183 0
191 0
177 0
473 0
488 0
497 0
